NAME : d2103
TYPE : OP
DIMENSION : 2103
COST_LIMIT : 24136
ROUTE_NODES : 578
ROUTE_SCORE : 34192
ROUTE_COST : 24133
NODE_SEQUENCE_SECTION
1
3
4
6
715
713
709
706
703
698
654
650
602
599
596
593
550
503
504
497
498
494
493
452
408
404
403
360
316
313
308
264
265
218
211
208
204
123
120
118
117
76
30
23
24
20
843
844
845
893
894
895
896
850
851
852
853
854
855
903
904
905
906
907
908
862
863
864
865
866
867
915
916
917
918
919
920
921
922
923
979
1026
1025
1024
1023
1022
1021
1020
1019
1018
1017
1016
1015
967
966
965
964
1011
1010
1009
1008
1007
1006
1005
1004
957
956
955
954
1001
1000
999
998
997
996
995
994
947
946
945
889
888
887
886
838
837
829
21
25
27
72
28
26
825
826
828
831
835
881
882
928
929
933
934
935
937
983
984
1030
1031
1036
1037
1041
1040
1085
1086
1130
1132
1133
1137
1138
1142
1143
1145
1194
1250
1249
1257
1258
1259
1260
1261
1262
1263
1264
1265
1239
1238
1203
1204
1205
1206
1207
1208
1245
1269
1270
1271
1272
1273
1310
1274
1275
1276
1277
1278
1279
1280
1281
1282
1283
1284
1285
1286
1287
1288
1289
1290
1291
1292
1293
1294
1295
1296
1297
1298
1299
1300
1301
1302
1303
1304
1305
1306
1233
1234
1235
1187
1977
1976
1920
1921
1922
1923
1924
1925
1926
1927
1928
1967
1966
1965
1964
1963
1962
1961
1960
1959
1958
1957
1956
1955
1954
1942
1943
1952
1951
1950
1945
1889
1888
1887
1886
1885
1884
1883
1882
1881
1894
1895
1896
1897
1898
1899
1900
1901
1902
1903
1904
1905
1906
1907
1908
1867
1866
1865
1864
1911
1912
1913
1914
1915
1916
1859
1860
1855
1854
1801
1802
1803
1804
1789
1788
1787
1786
1785
1784
1783
1782
1781
1755
1754
1753
1752
1751
1750
1749
1748
1747
1746
1745
1744
1743
1742
1793
1794
1795
1796
1738
1739
1740
1735
1681
1682
1683
1684
1685
1686
1687
1688
1689
1690
1691
1723
1722
1721
1694
1695
1696
1718
1717
1716
1699
1700
1701
1702
1703
1704
1650
1645
1644
1643
1642
1654
1655
1656
1657
1658
1659
1660
1661
1662
1663
1664
1665
1666
1667
1628
1627
1626
1625
1624
1623
1622
1621
1615
1616
1559
1560
1561
1562
1563
1564
1565
1566
1567
1608
1607
1606
1605
1604
1603
1602
1601
1600
1599
1598
1577
1578
1579
1580
1581
1582
1583
1584
1591
1590
1589
1586
1587
1528
1527
1526
1525
1524
1523
1522
1521
1520
1519
1518
1517
1516
1515
1540
1541
1542
1543
1544
1545
1546
1547
1508
1507
1506
1505
1504
1503
1502
1501
1554
1555
1556
1557
1498
1499
1496
1438
1439
1440
1441
1442
1443
1444
1445
1446
1447
1489
1488
1487
1486
1485
1484
1483
1482
1481
1454
1455
1456
1457
1458
1459
1460
1461
1462
1463
1464
1465
1410
1411
1403
1404
1405
1406
1350
1351
1352
1343
1342
1341
1340
1339
1338
1337
1336
1335
1334
1333
1332
1364
1365
1366
1367
1328
1327
1326
1325
1324
1323
1322
1321
1320
1376
1377
803
802
801
800
799
798
797
796
795
794
793
792
791
790
789
788
787
786
785
784
783
782
781
821
820
779
804
778
777
818
817
816
774
773
772
728
727
726
725
724
723
767
766
765
764
763
762
718
717
716
8
760
5
806
-1
DEPOT_SECTION
1
-1
EOF
